c FILE: queen7_7.col
c Translated from Stanford GraphBase File: queen7_7.sgb
c Stanford GraphBase ID: gunion(board(7,7,0,0,-1,0,0),board(7,7,0,0,-2,0,0),0,0)
p edge 49 952
e 1 9
e 1 17
e 1 25
e 1 33
e 1 41
e 1 49
e 1 2
e 1 3
e 1 4
e 1 5
e 1 6
e 1 7
e 1 8
e 1 15
e 1 22
e 1 29
e 1 36
e 1 43
e 2 10
e 2 18
e 2 26
e 2 34
e 2 42
e 2 8
e 2 3
e 2 4
e 2 5
e 2 6
e 2 7
e 2 9
e 2 16
e 2 23
e 2 30
e 2 37
e 2 44
e 2 1
e 3 11
e 3 19
e 3 27
e 3 35
e 3 9
e 3 15
e 3 4
e 3 5
e 3 6
e 3 7
e 3 10
e 3 17
e 3 24
e 3 31
e 3 38
e 3 45
e 3 2
e 3 1
e 4 12
e 4 20
e 4 28
e 4 10
e 4 16
e 4 22
e 4 5
e 4 6
e 4 7
e 4 11
e 4 18
e 4 25
e 4 32
e 4 39
e 4 46
e 4 3
e 4 2
e 4 1
e 5 13
e 5 21
e 5 11
e 5 17
e 5 23
e 5 29
e 5 6
e 5 7
e 5 12
e 5 19
e 5 26
e 5 33
e 5 40
e 5 47
e 5 4
e 5 3
e 5 2
e 5 1
e 6 14
e 6 12
e 6 18
e 6 24
e 6 30
e 6 36
e 6 7
e 6 13
e 6 20
e 6 27
e 6 34
e 6 41
e 6 48
e 6 5
e 6 4
e 6 3
e 6 2
e 6 1
e 7 13
e 7 19
e 7 25
e 7 31
e 7 37
e 7 43
e 7 14
e 7 21
e 7 28
e 7 35
e 7 42
e 7 49
e 7 6
e 7 5
e 7 4
e 7 3
e 7 2
e 7 1
e 8 16
e 8 24
e 8 32
e 8 40
e 8 48
e 8 9
e 8 10
e 8 11
e 8 12
e 8 13
e 8 14
e 8 15
e 8 22
e 8 29
e 8 36
e 8 43
e 8 2
e 8 1
e 9 17
e 9 25
e 9 33
e 9 41
e 9 49
e 9 15
e 9 10
e 9 11
e 9 12
e 9 13
e 9 14
e 9 16
e 9 23
e 9 30
e 9 37
e 9 44
e 9 8
e 9 3
e 9 2
e 9 1
e 10 18
e 10 26
e 10 34
e 10 42
e 10 16
e 10 22
e 10 11
e 10 12
e 10 13
e 10 14
e 10 17
e 10 24
e 10 31
e 10 38
e 10 45
e 10 9
e 10 8
e 10 4
e 10 3
e 10 2
e 11 19
e 11 27
e 11 35
e 11 17
e 11 23
e 11 29
e 11 12
e 11 13
e 11 14
e 11 18
e 11 25
e 11 32
e 11 39
e 11 46
e 11 10
e 11 9
e 11 8
e 11 5
e 11 4
e 11 3
e 12 20
e 12 28
e 12 18
e 12 24
e 12 30
e 12 36
e 12 13
e 12 14
e 12 19
e 12 26
e 12 33
e 12 40
e 12 47
e 12 11
e 12 10
e 12 9
e 12 8
e 12 6
e 12 5
e 12 4
e 13 21
e 13 19
e 13 25
e 13 31
e 13 37
e 13 43
e 13 14
e 13 20
e 13 27
e 13 34
e 13 41
e 13 48
e 13 12
e 13 11
e 13 10
e 13 9
e 13 8
e 13 7
e 13 6
e 13 5
e 14 20
e 14 26
e 14 32
e 14 38
e 14 44
e 14 21
e 14 28
e 14 35
e 14 42
e 14 49
e 14 13
e 14 12
e 14 11
e 14 10
e 14 9
e 14 8
e 14 7
e 14 6
e 15 23
e 15 31
e 15 39
e 15 47
e 15 16
e 15 17
e 15 18
e 15 19
e 15 20
e 15 21
e 15 22
e 15 29
e 15 36
e 15 43
e 15 9
e 15 8
e 15 3
e 15 1
e 16 24
e 16 32
e 16 40
e 16 48
e 16 22
e 16 17
e 16 18
e 16 19
e 16 20
e 16 21
e 16 23
e 16 30
e 16 37
e 16 44
e 16 15
e 16 10
e 16 9
e 16 8
e 16 4
e 16 2
e 17 25
e 17 33
e 17 41
e 17 49
e 17 23
e 17 29
e 17 18
e 17 19
e 17 20
e 17 21
e 17 24
e 17 31
e 17 38
e 17 45
e 17 16
e 17 15
e 17 11
e 17 10
e 17 9
e 17 5
e 17 3
e 17 1
e 18 26
e 18 34
e 18 42
e 18 24
e 18 30
e 18 36
e 18 19
e 18 20
e 18 21
e 18 25
e 18 32
e 18 39
e 18 46
e 18 17
e 18 16
e 18 15
e 18 12
e 18 11
e 18 10
e 18 6
e 18 4
e 18 2
e 19 27
e 19 35
e 19 25
e 19 31
e 19 37
e 19 43
e 19 20
e 19 21
e 19 26
e 19 33
e 19 40
e 19 47
e 19 18
e 19 17
e 19 16
e 19 15
e 19 13
e 19 12
e 19 11
e 19 7
e 19 5
e 19 3
e 20 28
e 20 26
e 20 32
e 20 38
e 20 44
e 20 21
e 20 27
e 20 34
e 20 41
e 20 48
e 20 19
e 20 18
e 20 17
e 20 16
e 20 15
e 20 14
e 20 13
e 20 12
e 20 6
e 20 4
e 21 27
e 21 33
e 21 39
e 21 45
e 21 28
e 21 35
e 21 42
e 21 49
e 21 20
e 21 19
e 21 18
e 21 17
e 21 16
e 21 15
e 21 14
e 21 13
e 21 7
e 21 5
e 22 30
e 22 38
e 22 46
e 22 23
e 22 24
e 22 25
e 22 26
e 22 27
e 22 28
e 22 29
e 22 36
e 22 43
e 22 16
e 22 15
e 22 10
e 22 8
e 22 4
e 22 1
e 23 31
e 23 39
e 23 47
e 23 29
e 23 24
e 23 25
e 23 26
e 23 27
e 23 28
e 23 30
e 23 37
e 23 44
e 23 22
e 23 17
e 23 16
e 23 15
e 23 11
e 23 9
e 23 5
e 23 2
e 24 32
e 24 40
e 24 48
e 24 30
e 24 36
e 24 25
e 24 26
e 24 27
e 24 28
e 24 31
e 24 38
e 24 45
e 24 23
e 24 22
e 24 18
e 24 17
e 24 16
e 24 12
e 24 10
e 24 8
e 24 6
e 24 3
e 25 33
e 25 41
e 25 49
e 25 31
e 25 37
e 25 43
e 25 26
e 25 27
e 25 28
e 25 32
e 25 39
e 25 46
e 25 24
e 25 23
e 25 22
e 25 19
e 25 18
e 25 17
e 25 13
e 25 11
e 25 9
e 25 7
e 25 4
e 25 1
e 26 34
e 26 42
e 26 32
e 26 38
e 26 44
e 26 27
e 26 28
e 26 33
e 26 40
e 26 47
e 26 25
e 26 24
e 26 23
e 26 22
e 26 20
e 26 19
e 26 18
e 26 14
e 26 12
e 26 10
e 26 5
e 26 2
e 27 35
e 27 33
e 27 39
e 27 45
e 27 28
e 27 34
e 27 41
e 27 48
e 27 26
e 27 25
e 27 24
e 27 23
e 27 22
e 27 21
e 27 20
e 27 19
e 27 13
e 27 11
e 27 6
e 27 3
e 28 34
e 28 40
e 28 46
e 28 35
e 28 42
e 28 49
e 28 27
e 28 26
e 28 25
e 28 24
e 28 23
e 28 22
e 28 21
e 28 20
e 28 14
e 28 12
e 28 7
e 28 4
e 29 37
e 29 45
e 29 30
e 29 31
e 29 32
e 29 33
e 29 34
e 29 35
e 29 36
e 29 43
e 29 23
e 29 22
e 29 17
e 29 15
e 29 11
e 29 8
e 29 5
e 29 1
e 30 38
e 30 46
e 30 36
e 30 31
e 30 32
e 30 33
e 30 34
e 30 35
e 30 37
e 30 44
e 30 29
e 30 24
e 30 23
e 30 22
e 30 18
e 30 16
e 30 12
e 30 9
e 30 6
e 30 2
e 31 39
e 31 47
e 31 37
e 31 43
e 31 32
e 31 33
e 31 34
e 31 35
e 31 38
e 31 45
e 31 30
e 31 29
e 31 25
e 31 24
e 31 23
e 31 19
e 31 17
e 31 15
e 31 13
e 31 10
e 31 7
e 31 3
e 32 40
e 32 48
e 32 38
e 32 44
e 32 33
e 32 34
e 32 35
e 32 39
e 32 46
e 32 31
e 32 30
e 32 29
e 32 26
e 32 25
e 32 24
e 32 20
e 32 18
e 32 16
e 32 14
e 32 11
e 32 8
e 32 4
e 33 41
e 33 49
e 33 39
e 33 45
e 33 34
e 33 35
e 33 40
e 33 47
e 33 32
e 33 31
e 33 30
e 33 29
e 33 27
e 33 26
e 33 25
e 33 21
e 33 19
e 33 17
e 33 12
e 33 9
e 33 5
e 33 1
e 34 42
e 34 40
e 34 46
e 34 35
e 34 41
e 34 48
e 34 33
e 34 32
e 34 31
e 34 30
e 34 29
e 34 28
e 34 27
e 34 26
e 34 20
e 34 18
e 34 13
e 34 10
e 34 6
e 34 2
e 35 41
e 35 47
e 35 42
e 35 49
e 35 34
e 35 33
e 35 32
e 35 31
e 35 30
e 35 29
e 35 28
e 35 27
e 35 21
e 35 19
e 35 14
e 35 11
e 35 7
e 35 3
e 36 44
e 36 37
e 36 38
e 36 39
e 36 40
e 36 41
e 36 42
e 36 43
e 36 30
e 36 29
e 36 24
e 36 22
e 36 18
e 36 15
e 36 12
e 36 8
e 36 6
e 36 1
e 37 45
e 37 43
e 37 38
e 37 39
e 37 40
e 37 41
e 37 42
e 37 44
e 37 36
e 37 31
e 37 30
e 37 29
e 37 25
e 37 23
e 37 19
e 37 16
e 37 13
e 37 9
e 37 7
e 37 2
e 38 46
e 38 44
e 38 39
e 38 40
e 38 41
e 38 42
e 38 45
e 38 37
e 38 36
e 38 32
e 38 31
e 38 30
e 38 26
e 38 24
e 38 22
e 38 20
e 38 17
e 38 14
e 38 10
e 38 3
e 39 47
e 39 45
e 39 40
e 39 41
e 39 42
e 39 46
e 39 38
e 39 37
e 39 36
e 39 33
e 39 32
e 39 31
e 39 27
e 39 25
e 39 23
e 39 21
e 39 18
e 39 15
e 39 11
e 39 4
e 40 48
e 40 46
e 40 41
e 40 42
e 40 47
e 40 39
e 40 38
e 40 37
e 40 36
e 40 34
e 40 33
e 40 32
e 40 28
e 40 26
e 40 24
e 40 19
e 40 16
e 40 12
e 40 8
e 40 5
e 41 49
e 41 47
e 41 42
e 41 48
e 41 40
e 41 39
e 41 38
e 41 37
e 41 36
e 41 35
e 41 34
e 41 33
e 41 27
e 41 25
e 41 20
e 41 17
e 41 13
e 41 9
e 41 6
e 41 1
e 42 48
e 42 49
e 42 41
e 42 40
e 42 39
e 42 38
e 42 37
e 42 36
e 42 35
e 42 34
e 42 28
e 42 26
e 42 21
e 42 18
e 42 14
e 42 10
e 42 7
e 42 2
e 43 44
e 43 45
e 43 46
e 43 47
e 43 48
e 43 49
e 43 37
e 43 36
e 43 31
e 43 29
e 43 25
e 43 22
e 43 19
e 43 15
e 43 13
e 43 8
e 43 7
e 43 1
e 44 45
e 44 46
e 44 47
e 44 48
e 44 49
e 44 43
e 44 38
e 44 37
e 44 36
e 44 32
e 44 30
e 44 26
e 44 23
e 44 20
e 44 16
e 44 14
e 44 9
e 44 2
e 45 46
e 45 47
e 45 48
e 45 49
e 45 44
e 45 43
e 45 39
e 45 38
e 45 37
e 45 33
e 45 31
e 45 29
e 45 27
e 45 24
e 45 21
e 45 17
e 45 10
e 45 3
e 46 47
e 46 48
e 46 49
e 46 45
e 46 44
e 46 43
e 46 40
e 46 39
e 46 38
e 46 34
e 46 32
e 46 30
e 46 28
e 46 25
e 46 22
e 46 18
e 46 11
e 46 4
e 47 48
e 47 49
e 47 46
e 47 45
e 47 44
e 47 43
e 47 41
e 47 40
e 47 39
e 47 35
e 47 33
e 47 31
e 47 26
e 47 23
e 47 19
e 47 15
e 47 12
e 47 5
e 48 49
e 48 47
e 48 46
e 48 45
e 48 44
e 48 43
e 48 42
e 48 41
e 48 40
e 48 34
e 48 32
e 48 27
e 48 24
e 48 20
e 48 16
e 48 13
e 48 8
e 48 6
e 49 48
e 49 47
e 49 46
e 49 45
e 49 44
e 49 43
e 49 42
e 49 41
e 49 35
e 49 33
e 49 28
e 49 25
e 49 21
e 49 17
e 49 14
e 49 9
e 49 7
e 49 1